135
10000
3505
506
2012
135
2167
1443
2768
3639
747
365
820
1756
984
1680
2775
4809
3365
1564
3523
4719
2217
772
393
4379
735
4331
2122
2271
2052
3804
393
3810
1098
4591
4577
2901
3835
1425
2762
1593
3134
2130
3185
588
934
2129
4647
2877
3550
3159
4449
1983
4841
2240
998
2357
266
1832
395
302
4775
199
989
348
1772
3545
1991
1606
546
2145
2187
1262
885
444
1629
724
4849
1830
2371
1004
2965
3675
1276
3246
1116
1873
1696
2663
2709
3095
1710
2907
144
2904
774
4115
4003
2867
2869
741
2720
2295
3459
3749
3513
1799
4207
789
578
1133
3477
3879
2929
1060
1740
2706
3030
1668
4349
931
2607
3036
2198
2990
944
1416
3
4479
3742
716
2358
450
290
2132
840
